50
1 0 134
2 0 30
2 1 34
3 0 95
3 2 154
4 0 60
4 1 148
4 2 105
4 3 148
5 0 22
5 2 148
5 4 121
6 1 136
6 2 29
6 4 13
6 5 109
7 0 83
7 1 29
7 3 144
7 4 150
7 5 123
7 6 93
8 0 26
8 1 21
8 2 152
8 3 132
8 4 119
8 5 111
8 6 97
8 7 138
9 0 101
9 1 14
9 3 96
9 6 128
9 7 103
9 8 4
10 0 142
10 2 138
10 4 47
10 6 73
10 8 95
10 9 91
11 0 3
11 1 114
11 2 153
11 3 40
11 4 111
11 6 146
11 7 144
11 8 27
11 9 70
11 10 29
12 0 115
12 1 24
12 2 29
12 3 51
12 4 147
12 6 93
12 7 13
12 8 123
12 9 60
13 0 126
13 1 3
13 2 25
13 4 86
13 5 38
13 6 111
13 7 118
13 8 80
13 9 58
13 10 27
13 12 99
14 0 20
14 1 117
14 2 48
14 3 94
14 4 118
14 5 122
14 7 30
14 10 94
14 11 110
14 12 119
14 13 95
15 0 143
15 1 90
15 2 149
15 3 136
15 6 93
15 7 70
15 8 141
15 10 76
15 12 96
15 13 36
15 14 133
16 1 55
16 2 117
16 3 44
16 4 102
16 5 119
16 6 130
16 7 63
16 8 25
16 9 136
16 11 89
16 12 56
16 13 31
16 14 130
16 15 29
17 1 88
17 3 23
17 4 158
17 5 127
17 6 82
17 7 101
17 8 137
17 10 135
17 12 104
17 14 3
17 15 18
17 16 123
18 0 159
18 1 48
18 2 106
18 3 56
18 4 29
18 6 56
18 7 39
18 8 143
18 9 82
18 10 10
18 12 29
18 13 43
18 15 22
18 16 2
19 0 34
19 1 159
19 2 22
19 4 26
19 5 80
19 6 136
19 7 31
19 12 43
19 13 98
19 14 17
19 15 155
19 17 22
19 18 50
20 0 141
20 1 30
20 2 151
20 4 85
20 6 49
20 8 54
20 10 25
20 11 26
20 12 47
20 13 32
20 14 73
20 15 23
20 16 30
20 17 42
20 18 107
20 19 112
21 0 131
21 1 68
21 2 135
21 3 39
21 4 7
21 5 4
21 6 72
21 7 72
21 8 23
21 9 102
21 10 133
21 11 26
21 12 41
21 14 7
21 15 26
21 16 121
21 17 43
21 18 131
21 19 4
21 20 142
22 1 90
22 2 120
22 3 15
22 4 154
22 5 58
22 6 39
22 7 113
22 8 10
22 10 139
22 11 108
22 12 99
22 13 129
22 14 95
22 15 151
22 16 136
22 17 97
22 18 8
22 19 16
22 20 61
22 21 83
23 0 60
23 2 30
23 3 13
23 4 16
23 5 29
23 6 100
23 7 132
23 8 13
23 9 149
23 10 143
23 11 153
23 12 157
23 13 106
23 14 92
23 15 159
23 16 95
23 17 96
23 19 79
23 21 67
23 22 142
24 1 52
24 2 158
24 3 60
24 4 109
24 5 2
24 6 52
24 7 56
24 8 91
24 9 142
24 10 91
24 11 149
24 12 62
24 13 111
24 14 16
24 16 82
24 17 71
24 19 82
24 20 110
24 21 132
24 22 117
24 23 152
25 0 3
25 2 1
25 4 83
25 5 56
25 6 137
25 7 155
25 8 107
25 11 123
25 13 52
25 14 87
25 17 96
25 18 59
25 19 28
25 21 95
25 22 138
25 23 14
25 24 90
26 0 97
26 2 46
26 3 159
26 7 8
26 8 23
26 9 33
26 11 7
26 12 160
26 13 85
26 14 160
26 15 17
26 16 135
26 17 103
26 18 71
26 19 90
26 21 86
26 22 22
26 24 90
26 25 78
27 0 108
27 1 128
27 3 78
27 5 103
27 6 145
27 7 86
27 8 29
27 9 157
27 10 64
27 11 52
27 12 15
27 13 92
27 15 90
27 17 96
27 18 33
27 20 127
27 21 63
27 23 152
27 24 27
27 25 128
27 26 57
28 0 117
28 1 107
28 2 14
28 4 78
28 6 144
28 7 147
28 8 68
28 9 71
28 10 33
28 11 102
28 13 160
28 15 110
28 16 15
28 17 63
28 18 67
28 20 83
28 21 16
28 22 10
28 24 113
28 25 17
29 0 39
29 1 57
29 2 134
29 3 65
29 5 84
29 7 20
29 9 54
29 10 80
29 11 82
29 12 54
29 13 74
29 14 133
29 15 128
29 16 19
29 17 59
29 18 91
29 19 143
29 20 73
29 21 4
29 23 158
29 24 21
29 25 141
29 28 53
30 0 52
30 1 13
30 2 118
30 3 25
30 4 117
30 5 85
30 6 105
30 7 106
30 8 64
30 9 149
30 10 73
30 13 25
30 15 16
30 17 137
30 18 101
30 19 154
30 20 17
30 21 133
30 22 102
30 24 112
30 26 47
30 27 105
30 28 11
30 29 6
31 0 58
31 1 92
31 2 116
31 3 25
31 4 150
31 5 137
31 6 16
31 8 20
31 9 86
31 10 72
31 11 154
31 12 107
31 13 132
31 14 119
31 15 69
31 16 28
31 17 9
31 19 40
31 21 116
31 22 142
31 23 129
31 24 63
31 25 21
31 26 42
31 27 125
31 28 67
31 29 89
31 30 124
32 0 152
32 1 160
32 4 125
32 5 51
32 6 17
32 7 91
32 8 80
32 9 36
32 10 24
32 12 118
32 13 36
32 14 105
32 15 14
32 16 45
32 17 7
32 18 85
32 19 153
32 20 134
32 21 25
32 22 71
32 23 105
32 24 131
32 27 50
32 28 158
32 29 74
32 30 52
32 31 145
33 0 121
33 1 147
33 2 68
33 3 9
33 5 147
33 6 25
33 7 90
33 8 148
33 10 100
33 11 55
33 13 149
33 15 1
33 17 147
33 18 94
33 19 126
33 20 140
33 21 92
33 22 124
33 23 154
33 25 88
33 26 137
33 28 79
33 29 100
33 30 11
33 31 74
34 1 115
34 2 77
34 3 58
34 4 36
34 5 144
34 6 74
34 7 78
34 8 93
34 9 148
34 10 66
34 11 8
34 12 157
34 14 126
34 15 26
34 16 135
34 18 138
34 19 74
34 20 101
34 21 148
34 22 107
34 23 139
34 24 156
34 25 75
34 26 140
34 27 144
34 29 46
34 30 140
34 31 147
34 32 117
35 1 31
35 3 128
35 5 95
35 6 135
35 7 84
35 8 99
35 9 84
35 10 156
35 12 154
35 13 111
35 16 32
35 17 18
35 18 20
35 19 96
35 20 39
35 21 115
35 22 24
35 23 84
35 24 154
35 25 142
35 26 25
35 27 38
35 28 104
35 29 34
35 30 111
35 31 24
35 33 64
35 34 160
36 1 55
36 2 102
36 3 92
36 5 35
36 6 11
36 7 26
36 9 61
36 10 24
36 12 114
36 13 27
36 14 53
36 15 97
36 16 154
36 17 123
36 18 141
36 19 51
36 20 1
36 22 109
36 23 53
36 24 12
36 25 160
36 26 105
36 27 124
36 28 135
36 29 127
36 30 17
36 31 107
36 32 86
36 33 15
36 34 46
36 35 148
37 0 151
37 1 1
37 3 35
37 4 138
37 5 63
37 6 4
37 7 146
37 8 26
37 9 138
37 11 48
37 12 76
37 13 18
37 15 31
37 16 17
37 17 22
37 18 102
37 19 3
37 20 85
37 21 92
37 24 138
37 25 41
37 26 123
37 27 105
37 28 53
37 29 153
37 30 8
37 31 12
37 32 37
37 33 109
37 34 90
37 35 132
37 36 142
38 0 29
38 1 8
38 2 152
38 4 42
38 5 3
38 6 80
38 7 26
38 8 97
38 9 150
38 10 108
38 11 32
38 13 92
38 16 7
38 18 120
38 19 54
38 20 134
38 22 111
38 24 111
38 25 112
38 26 40
38 27 77
38 28 148
38 29 7
38 30 87
38 31 58
38 32 98
38 33 34
38 34 15
38 35 97
38 37 123
39 0 46
39 1 71
39 2 66
39 3 20
39 4 93
39 5 130
39 6 121
39 7 145
39 8 145
39 9 102
39 11 47
39 12 83
39 13 27
39 14 25
39 15 53
39 18 83
39 19 33
39 20 17
39 21 160
39 24 100
39 25 61
39 26 67
39 27 17
39 28 71
39 30 128
39 33 50
39 34 50
39 35 141
39 36 82
40 0 42
40 1 156
40 3 93
40 4 131
40 5 98
40 6 37
40 7 52
40 8 143
40 10 108
40 11 45
40 12 154
40 13 29
40 14 94
40 15 7
40 16 99
40 17 27
40 18 30
40 19 19
40 20 123
40 21 48
40 22 80
40 23 156
40 25 29
40 27 141
40 28 150
40 29 74
40 30 56
40 31 57
40 33 36
40 35 16
40 37 58
40 38 58
40 39 35
41 0 8
41 1 105
41 2 44
41 3 159
41 4 111
41 5 19
41 6 1
41 7 60
41 8 83
41 9 55
41 10 106
41 12 78
41 13 8
41 14 97
41 15 66
41 16 64
41 17 67
41 18 78
41 19 112
41 20 138
41 21 138
41 22 13
41 24 18
41 26 116
41 27 119
41 28 149
41 29 43
41 30 45
41 32 133
41 33 6
41 34 90
41 35 153
41 36 108
41 37 95
41 38 155
41 39 93
41 40 79
42 0 101
42 1 160
42 3 2
42 4 55
42 5 81
42 6 80
42 7 68
42 11 114
42 12 141
42 13 73
42 14 71
42 15 37
42 17 123
42 19 36
42 20 146
42 21 110
42 22 10
42 23 74
42 24 133
42 26 41
42 27 64
42 28 25
42 29 118
42 30 112
42 31 44
42 33 2
42 34 11
42 36 112
42 37 50
42 38 74
42 39 125
43 0 133
43 1 100
43 2 68
43 3 110
43 4 102
43 5 94
43 6 152
43 7 4
43 8 31
43 9 64
43 10 153
43 11 75
43 12 31
43 13 42
43 14 135
43 15 68
43 16 132
43 17 59
43 18 82
43 19 61
43 20 82
43 21 16
43 22 130
43 23 34
43 24 160
43 25 41
43 27 45
43 29 8
43 30 56
43 31 74
43 33 48
43 34 34
43 35 112
43 36 100
43 38 105
43 39 53
43 40 148
43 41 99
43 42 15
44 0 133
44 1 4
44 3 105
44 4 78
44 5 108
44 6 121
44 7 54
44 8 152
44 9 10
44 10 83
44 11 144
44 12 80
44 13 80
44 14 103
44 15 7
44 16 154
44 17 12
44 18 107
44 19 86
44 21 96
44 22 107
44 23 19
44 24 1
44 26 124
44 28 44
44 30 62
44 32 91
44 33 18
44 34 156
44 35 117
44 36 116
44 37 22
44 38 50
44 39 108
44 40 60
44 41 24
44 42 157
44 43 132
45 0 121
45 2 76
45 4 90
45 5 3
45 6 130
45 7 86
45 8 34
45 10 133
45 12 157
45 13 103
45 14 87
45 15 108
45 16 160
45 17 159
45 18 37
45 19 60
45 20 27
45 21 149
45 23 5
45 24 136
45 25 17
45 26 71
45 27 18
45 28 39
45 29 14
45 30 81
45 31 33
45 32 40
45 33 119
45 34 64
45 35 39
45 36 80
45 37 140
45 38 31
45 39 41
45 40 31
45 41 82
45 42 129
45 43 17
45 44 144
46 1 110
46 2 110
46 4 13
46 5 106
46 6 9
46 7 45
46 8 159
46 9 120
46 11 156
46 12 77
46 14 9
46 16 13
46 18 68
46 19 72
46 20 60
46 21 97
46 22 60
46 23 58
46 24 2
46 25 125
46 27 41
46 28 94
46 29 155
46 32 25
46 33 95
46 34 142
46 35 104
46 36 101
46 38 26
46 39 73
46 40 72
46 41 45
46 42 73
46 44 124
46 45 135
47 0 79
47 1 140
47 2 155
47 3 15
47 4 20
47 6 114
47 8 136
47 10 132
47 11 43
47 12 52
47 13 42
47 15 21
47 16 119
47 17 76
47 18 88
47 19 74
47 20 113
47 21 140
47 23 139
47 24 84
47 25 92
47 26 79
47 28 119
47 29 78
47 30 140
47 32 2
47 33 23
47 34 131
47 35 83
47 36 15
47 37 89
47 38 150
47 39 117
47 40 104
47 41 41
47 42 19
47 43 117
47 44 69
47 45 135
47 46 109
48 1 120
48 2 143
48 3 1
48 4 118
48 5 36
48 6 33
48 7 14
48 8 101
48 9 53
48 10 12
48 12 16
48 13 143
48 14 68
48 15 31
48 16 94
48 17 121
48 18 93
48 19 109
48 20 112
48 21 53
48 22 132
48 23 103
48 24 11
48 26 22
48 27 98
48 28 27
48 29 103
48 30 106
48 31 93
48 32 115
48 34 25
48 35 65
48 36 36
48 38 27
48 40 158
48 41 81
48 43 109
48 44 144
48 46 78
48 47 7
49 0 48
49 1 8
49 3 47
49 4 127
49 6 48
49 7 59
49 8 107
49 9 82
49 10 112
49 11 9
49 13 92
49 14 40
49 15 158
49 16 109
49 18 19
49 19 106
49 20 77
49 21 116
49 22 142
49 24 13
49 26 74
49 28 104
49 29 36
49 30 135
49 31 18
49 32 46
49 33 132
49 35 128
49 36 124
49 37 151
49 38 77
49 39 64
49 40 98
49 41 43
49 42 97
49 43 100
49 44 137
49 45 14
49 46 51
49 48 100
